 vasp.5.4.4 18Apr17 (build Dec 13 2019 08:37:50) complex

 executed on             LinuxIFC date 2022.02.14  12:11:26

 INCAR:
 POTCAR:    PAW_PBE Hf_pv 06Sep2000
 POTCAR:    PAW_PBE Ni_pv 06Sep2000
 POTCAR:    PAW_PBE Ti_sv 26Sep2005
 POTCAR:    PAW_PBE Hf_pv 06Sep2000

 POTCAR:    PAW_PBE Ni_pv 06Sep2000

 POTCAR:    PAW_PBE Ti_sv 26Sep2005

 Optimization of the real space projectors (new method)

 maximal supplied QI-value         = 14.36
 optimisation between [QCUT,QGAM] = [  7.18, 14.36] = [ 14.44, 57.76] Ry
 Optimized for a Real-space Cutoff    2.13 Angstroem

   l    n(q)    QCUT    max X(q) W(low)/X(q) W(high)/X(q)  e(spline)
   1      9     7.181    53.935    0.31E-04    0.13E-03    0.36E-06
   1      9     7.181    55.378    0.32E-04    0.13E-03    0.37E-06
   2      8     7.181    48.043    0.31E-03    0.25E-04    0.96E-06
   2      8     7.181    39.488    0.29E-03    0.24E-04    0.92E-06
   0      9     7.181   121.653    0.21E-04    0.44E-04    0.12E-06
   0      9     7.181    66.520    0.17E-04    0.39E-04    0.11E-06
 Optimization of the real space projectors (new method)

[...]

   l    n(q)    QCUT    max X(q) W(low)/X(q) W(high)/X(q)  e(spline)
   1      9     7.181     2.836    0.59E-05    0.48E-04    0.52E-06
   1      9     7.181     4.023    0.86E-04    0.22E-03    0.98E-06
   2      8     7.181    43.750    0.26E-03    0.56E-03    0.14E-05
   2      8     7.181    39.270    0.28E-03    0.60E-03    0.14E-05
   0      9     7.181    54.797    0.52E-04    0.91E-04    0.33E-06
   0      9     7.181    24.266    0.38E-04    0.81E-04    0.31E-06
 Optimization of the real space projectors (new method)

 maximal supplied QI-value         = 16.25
 optimisation between [QCUT,QGAM] = [  7.15, 14.46] = [ 14.32, 58.58] Ry
 Optimized for a Real-space Cutoff    1.90 Angstroem

   l    n(q)    QCUT    max X(q) W(low)/X(q) W(high)/X(q)  e(spline)
   0      8     7.151    12.277    0.20E-04    0.42E-04    0.73E-07
   0      8     7.151    11.419    0.26E-04    0.89E-04    0.14E-06
   1      8     7.151     4.010    0.12E-03    0.71E-04    0.98E-07
   1      8     7.151     6.182    0.37E-03    0.25E-03    0.21E-06
   2      7     7.151    46.638    0.39E-03    0.43E-03    0.16E-06
   2      7     7.151    42.148    0.38E-03    0.43E-03    0.15E-06
  PAW_PBE Hf_pv 06Sep2000               :
  PAW_PBE Ni_pv 06Sep2000               :
  PAW_PBE Ti_sv 26Sep2005               :

 POSCAR: MLIP output to VASP
  positions in cartesian coordinates
 exchange correlation table for  LEXCH =        8
   RHO(1)=    0.500       N(1)  =     2000
   RHO(2)=  100.500       N(2)  =     4000

 ion  position               nearest neighbor table
   1  0.330  0.350  0.019-  28 2.57  25 2.58  44 2.73  32 2.94  39 2.95  45 3.01  18 3.06  37 3.12
                            43 3.14  15 3.18  31 3.24  52 3.28   4 3.31   2 3.36
   2  0.282  0.712  0.993-  25 2.49  29 2.63  26 2.66  45 2.78  31 2.82  28 2.89  52 2.92  30 2.95
                            33 3.06  38 3.11  42 3.27   9 3.30   1 3.36
   3  0.671  0.003  0.307-  46 2.70  17 2.72  47 2.75  20 2.79  44 2.82  11 2.88   9 2.91  14 2.92
                            37 2.98  22 3.16  35 3.17  34 3.19   7 3.29  13 3.43
   4  0.305  0.390  0.367-  25 2.50  44 2.97  12 3.00  10 3.03  48 3.05  37 3.08  11 3.09  36 3.15
                            38 3.27   1 3.31  39 3.33   5 3.41
   5  0.029  0.625  0.351-  25 2.52  26 2.72  49 2.77  50 2.80  36 2.93  46 2.94  48 3.02  33 3.06
                             8 3.20  14 3.28   4 3.41
   6  0.976  0.002  0.660-  23 2.59  27 2.64  41 2.72  22 2.82  50 2.91  29 2.94  34 2.97  54 2.98
                            30 3.10  15 3.14  10 3.16  14 3.17
   7  0.868  0.181  0.107-  27 2.56  17 2.60  18 2.70  34 2.87   8 3.04  43 3.06  36 3.08  47 3.10
                            30 3.16   3 3.29  37 3.37  46 3.39  15 3.40  16 3.53
   8  0.796  0.489  0.197-  20 2.55  19 2.64  18 2.82  36 2.97  49 2.97  37 3.04   7 3.04  33 3.10
                            45 3.11  47 3.13   5 3.20  46 3.24  16 3.33  32 3.33  12 3.62
   9  0.545  0.860  0.083-  19 2.52  17 2.59  20 2.66  31 2.76  35 2.80  45 2.85   3 2.91  38 2.99
                            44 3.06  51 3.17  46 3.24   2 3.30
  10  0.219  0.117  0.504-  21 2.73  50 2.89  35 2.91  36 2.98   4 3.03  43 3.09  11 3.11   6 3.16
                            34 3.19  48 3.22  13 3.51  15 3.65
  11  0.513  0.166  0.508-  22 2.59  39 2.77   3 2.88  51 2.90  40 2.93  44 2.94  21 2.98  47 2.99
                            37 3.01   4 3.09  10 3.11  13 3.17  12 3.18  35 3.32
  12  0.550  0.499  0.472-  24 2.62  20 2.81  40 2.83  38 2.89  37 3.00   4 3.00  49 3.14  11 3.18
                            13 3.23  39 3.28  47 3.30  45 3.32  42 3.36   8 3.62
  13  0.471  0.835  0.535-  53 2.01  35 2.50  38 2.68  24 2.96  20 3.15  21 3.16  11 3.17  29 3.20
                            50 3.22  12 3.23  42 3.23  14 3.25   3 3.43  10 3.51
  14  0.788  0.796  0.524-  24 2.36  22 2.43  20 2.68   3 2.92  49 3.01   6 3.17  41 3.23  13 3.25
                             5 3.28  53 3.32  34 3.33  46 3.37
  15  0.106  0.207  0.861-  18 2.71  28 2.74  23 2.83  30 2.87  31 2.93  21 2.97  27 3.02  43 3.08
                            48 3.11   6 3.14   1 3.18  16 3.30   7 3.40  10 3.65
  16  0.864  0.467  0.851-  19 2.70  23 2.79  18 2.81  24 2.86  33 2.87  40 2.93  28 2.96  32 3.01
                            27 3.07  49 3.23  41 3.23  15 3.30   8 3.33   7 3.53
  17  0.646  0.098  0.030-  51 2.43   9 2.59   7 2.60  32 2.71   3 2.72
  18  0.037  0.381  0.078-  25 2.47  28 2.52  33 2.53  36 2.59  43 2.63   7 2.70  15 2.71  16 2.81
                             8 2.82   1 3.06
  19  0.692  0.655  0.984-   9 2.52  45 2.56   8 2.64  54 2.64  52 2.69  16 2.70
  20  0.662  0.706  0.300-   8 2.55  46 2.61   9 2.66  14 2.68   3 2.79  12 2.81  13 3.15
  21  0.357  0.066  0.752-  51 2.12  29 2.36  31 2.47  39 2.55  10 2.73  15 2.97  11 2.98  13 3.16

  22  0.702  0.013  0.641-  51 2.09  14 2.43  11 2.59   6 2.82   3 3.16
  23  0.929  0.280  0.633-  49 2.21  48 2.46   6 2.59  47 2.63  40 2.64  16 2.79  15 2.83
  24  0.681  0.626  0.660-  53 2.08  14 2.36  52 2.57  49 2.61  12 2.62  16 2.86  13 2.96
  25  0.194  0.539  0.167-  18 2.47   2 2.49   4 2.50  33 2.52   5 2.52   1 2.58
  26  0.157  0.829  0.214-  30 2.58  38 2.63  50 2.64  34 2.65   2 2.66   5 2.72  35 2.73
  27  0.824  0.146  0.843-  40 2.50   7 2.56   6 2.64  54 2.65  15 3.02  16 3.07
  28  0.148  0.491  0.868-  18 2.52  33 2.56  48 2.56   1 2.57  41 2.58  42 2.63  15 2.74   2 2.89
                            16 2.96
  29  0.233  0.867  0.755-  21 2.36  41 2.60  50 2.61  42 2.62   2 2.63   6 2.94  13 3.20
  30  0.053  0.930  0.975-  26 2.58  54 2.61  33 2.76  31 2.82  15 2.87   2 2.95   6 3.10   7 3.16

  31  0.309  0.008  0.004-  21 2.47  43 2.53  44 2.72   9 2.76   2 2.82  30 2.82  15 2.93   1 3.24

  32  0.604  0.380  0.947-  52 2.25  45 2.59  40 2.59  37 2.70  17 2.71   1 2.94  16 3.01   8 3.33

  33  0.997  0.650  0.027-  25 2.52  18 2.53  46 2.54  28 2.56  30 2.76  54 2.80  41 2.82  16 2.87
                             5 3.06   2 3.06   8 3.10
  34  0.979  0.004  0.343-  26 2.65  43 2.77  50 2.78  46 2.80   7 2.87  47 2.91   6 2.97  10 3.19
                             3 3.19  14 3.33
  35  0.375  0.940  0.305-  38 2.11  44 2.16  13 2.50  26 2.73   9 2.80  10 2.91   3 3.17  11 3.32

  36  0.016  0.313  0.346-  18 2.59  43 2.63  49 2.66  47 2.71   5 2.93   8 2.97  10 2.98   7 3.08
                             4 3.15
  37  0.570  0.306  0.224-  44 2.24  45 2.59  32 2.70  47 2.82   3 2.98  12 3.00  11 3.01   8 3.04
                             4 3.08   1 3.12   7 3.37
  38  0.389  0.714  0.302-  35 2.11  45 2.44  26 2.63  13 2.68  12 2.89   9 2.99   2 3.11   4 3.27

  39  0.381  0.333  0.711-  21 2.55  42 2.65  11 2.77  52 2.88   1 2.95  12 3.28   4 3.33
  40  0.678  0.320  0.690-  27 2.50  32 2.59  23 2.64  12 2.83  47 2.88  11 2.93  16 2.93
  41  0.034  0.718  0.736-  28 2.58  29 2.60   6 2.72  42 2.78  50 2.81  33 2.82  54 2.84  16 3.23
                            14 3.23
  42  0.285  0.605  0.665-  29 2.62  48 2.62  28 2.63  39 2.65  52 2.65  50 2.71  41 2.78  13 3.23
                             2 3.27  12 3.36
  43  0.159  0.138  0.181-  31 2.53  18 2.63  36 2.63  34 2.77  44 2.80   7 3.06  15 3.08  10 3.09
                             1 3.14
  44  0.429  0.140  0.212-  35 2.16  37 2.24  31 2.72   1 2.73  43 2.80   3 2.82  11 2.94   4 2.97
                             9 3.06
  45  0.502  0.565  0.124-  38 2.44  19 2.56  37 2.59  32 2.59  52 2.77   2 2.78   9 2.85   1 3.01
                             8 3.11  12 3.32
  46  0.851  0.824  0.173-  33 2.54  20 2.61  54 2.68   3 2.70  34 2.80   5 2.94   8 3.24   9 3.24
                            14 3.37   7 3.39
  47  0.778  0.232  0.418-  23 2.63  49 2.66  36 2.71   3 2.75  37 2.82  40 2.88  34 2.91  11 2.99
                             7 3.10   8 3.13  12 3.30
  48  0.109  0.431  0.608-  23 2.46  28 2.56  42 2.62  49 2.78   5 3.02   4 3.05  15 3.11  10 3.22

  49  0.854  0.476  0.508-  23 2.21  24 2.61  36 2.66  47 2.66   5 2.77  48 2.78   8 2.97  14 3.01
                            12 3.14  16 3.23
  50  0.163  0.821  0.495-  29 2.61  26 2.64  42 2.71  34 2.78   5 2.80  41 2.81  10 2.89   6 2.91
                            13 3.22
  51  0.559  0.051  0.797-  22 2.09  21 2.12  17 2.43  53 2.76  11 2.90   9 3.17
  52  0.496  0.570  0.829-  53 2.11  32 2.25  24 2.57  42 2.65  19 2.69  45 2.77  39 2.88   2 2.92
                             1 3.28
  53  0.531  0.771  0.733-  13 2.01  24 2.08  52 2.11  51 2.76  14 3.32
  54  0.826  0.864  0.889-  30 2.61  19 2.64  27 2.65  46 2.68  33 2.80  41 2.84   6 2.98

  LATTYP: Found a triclinic cell.
 ALAT       =    29.8773866884
 B/A-ratio  =     0.3450371813
 C/A-ratio  =     0.3143215162
 COS(alpha) =     0.0007309725
 COS(beta)  =     0.6168880492
 COS(gamma) =     0.7235602306

  Lattice vectors:

 A1 = (  21.0630120000,  10.1400410000, -18.6061100000)
 A2 = (  10.2948030000,   0.5362940000,  -0.0311270000)
 A3 = (  -0.0147530000,  -0.1298600000,  -9.3901960000)

Analysis of symmetry for initial positions (statically):
 Subroutine PRICEL returns:
 Original cell was already a primitive cell.

 Routine SETGRP: Setting up the symmetry group for a
 triclinic supercell.

 Subroutine GETGRP returns: Found  1 space group operations
 (whereof  1 operations were pure point group operations)
 out of a pool of  2 trial point group operations.

The static configuration has the point symmetry C_1 .

Analysis of symmetry for dynamics (positions and initial velocities):
 Subroutine PRICEL returns:
 Original cell was already a primitive cell.

 Routine SETGRP: Setting up the symmetry group for a
 triclinic supercell.

 Subroutine GETGRP returns: Found  1 space group operations
 (whereof  1 operations were pure point group operations)
 out of a pool of  2 trial point group operations.

The dynamic configuration has the point symmetry C_1 .

 Subroutine INISYM returns: Found  1 space group operations
 (whereof  1 operations are pure point group operations),
 and found     1 'primitive' translations

Automatic generation of k-mesh.
 generate k-points for:    2    2    2
[...]
    399       9.1512      0.00000
    400       9.2042      0.00000
    401       9.2096      0.00000
    402       9.2719      0.00000

[...]

 k-point     8 :       0.5000    0.5000    0.5000
  band No.  band energies     occupation
      1     -57.6647      2.00000
      2     -57.5278      2.00000
      3     -57.4600      2.00000
      4     -57.3579      2.00000
      5     -57.3334      2.00000
      6     -57.2460      2.00000
      7     -57.1627      2.00000
      8     -57.1553      2.00000
      9     -57.1344      2.00000
     10     -57.0987      2.00000
     11     -57.0539      2.00000
     12     -57.0458      2.00000
     13     -57.0123      2.00000
     14     -56.9869      2.00000
     15     -56.9627      2.00000
     16     -56.9266      2.00000
     17     -56.9029      2.00000
     18     -56.8377      2.00000
     19     -56.7948      2.00000
     20     -56.7777      2.00000
     21     -56.7639      2.00000
     22     -56.7310      2.00000
     23     -56.7057      2.00000
     24     -56.6674      2.00000
     25     -56.6462      2.00000
     26     -56.5771      2.00000
     27     -56.5543      2.00000
     28     -56.5310      2.00000
     29     -56.5070      2.00000
     30     -56.4589      2.00000
     31     -56.4297      2.00000
     32     -56.3988      2.00000
     33     -56.3912      2.00000
     34     -56.3427      2.00000
     35     -56.2990      2.00000
     36     -56.2883      2.00000
     37     -56.2299      2.00000
     38     -56.1602      2.00000
     39     -55.9176      2.00000
     40     -50.1665      2.00000
     41     -50.1516      2.00000
     42     -49.9888      2.00000
     43     -49.9673      2.00000
     44     -49.9519      2.00000
     45     -49.9349      2.00000
     46     -49.9112      2.00000
     47     -49.8947      2.00000
     48     -49.8922      2.00000
     49     -49.8792      2.00000
     50     -49.8525      2.00000
     51     -49.8408      2.00000
     52     -49.8103      2.00000
     53     -49.7743      2.00000
     54     -49.7654      2.00000
     55     -49.7314      2.00000
     56     -49.7026      2.00000
     57     -49.6990      2.00000
     58     -49.6468      2.00000
     59     -49.5763      2.00000
     60     -49.4789      2.00000
[...]
    388       8.7438      0.00000
    389       8.8343      0.00000
    390       8.8572      0.00000
    391       8.8922      0.00000
    392       8.9362      0.00000
    393       8.9503      0.00000
    394       8.9646      0.00000
    395       9.0173      0.00000
    396       9.0603      0.00000
    397       9.0848      0.00000
    398       9.0998      0.00000
    399       9.1306      0.00000
    400       9.1690      0.00000
    401       9.1931      0.00000
    402       9.2479      0.00000

 soft charge-density along one line, spin component           1
         0         1         2         3         4         5         6         7         8         9
 total charge-density along one line

------------------------ aborting loop because EDIFF is reached ----------------------------------------

  FORCE on cell =-STRESS in cart. coord.  units (eV):
  Direction    XX          YY          ZZ          XY          YZ          ZX
  Alpha Z  4808.69657  4808.69657  4808.69657
  Ewald  -22175.04709-20912.10602-22365.54180   404.92985  -477.42970  -626.45935
  Hartree  9545.95699 10292.76687  9076.80559   577.53793  -228.58783  -553.28302
  E(xc)   -3757.75647 -3756.61868 -3757.72643    -0.49784    -0.24048    -0.45638
  Local     396.43823 -1583.68871  1073.19982  -991.27822   688.87135  1186.15894
  n-local -5357.42334 -5392.35723 -5367.92939    21.56583     4.20040    -3.40655
  augment  4248.68473  4253.97591  4248.55106    -2.13103     1.49647     0.32039
  Kinetic 10073.68225 10089.54242 10073.61325   -16.53746     0.72357    -0.24090
  Fock        0.00000     0.00000     0.00000     0.00000     0.00000     0.00000
  Total   -2216.76813 -2199.78885 -2210.33133    -6.41094   -10.96622     2.63313
  in kB   -3951.48627 -3921.21996 -3940.01239   -11.42778   -19.54776     4.69367

 VOLUME and BASIS-vectors are now :
  energy-cutoff  :      200.00
  volume of cell :      898.82
      direct lattice vectors                 reciprocal lattice vectors
    10.294803000  0.536294000 -0.031127000     0.097409649 -0.005250193 -0.000080434
     0.502912000  9.327173000  0.236536000    -0.005607324  0.107553460 -0.001478581
     0.014753000  0.129860000  9.390196000     0.000464144 -0.002726640  0.106531028

  length of vectors
    10.308809289  9.343715852  9.391105483     0.097551067  0.107709679  0.106566927

 FORCES acting on ions
    electron-ion (+dipol)            ewald-force                    non-local-force                 convergence-correction
   -.157E+03 0.169E+03 -.945E+01   0.157E+03 -.167E+03 0.994E+01   -.601E+00 -.680E+00 -.122E+01   -.332E-02 0.431E-03 0.774E-02
   -.174E+03 -.317E+02 0.582E+02   0.173E+03 0.312E+02 -.585E+02   -.213E+00 0.553E+00 -.356E+00   0.656E-03 -.192E-02 0.901E-02
   -.744E+02 -.532E+02 -.144E+03   0.741E+02 0.543E+02 0.143E+03   0.846E+00 -.150E+01 0.558E+00   0.499E-03 -.325E-02 -.136E-02
   -.778E+02 0.677E+02 -.231E+03   0.782E+02 -.686E+02 0.232E+03   -.106E+01 0.163E+01 -.554E+00   -.424E-02 0.211E-02 -.568E-02
   0.101E+03 -.212E+02 -.284E+03   -.101E+03 0.201E+02 0.283E+03   0.638E+00 0.127E+01 0.638E+00   -.220E-02 -.497E-02 -.212E-02
   -.146E+03 0.975E+02 0.232E+03   0.146E+03 -.983E+02 -.232E+03   -.381E-02 0.223E+01 -.520E+00   -.427E-02 0.249E-02 -.379E-02
   -.308E+02 -.524E+00 -.213E+03   0.311E+02 0.138E+00 0.214E+03   -.963E+00 -.145E+00 -.217E+01   0.377E-02 0.405E-02 -.134E-02
   -.132E+02 0.165E+03 -.139E+03   0.132E+02 -.165E+03 0.140E+03   -.350E+00 0.124E+01 -.101E+01   0.489E-02 0.986E-03 -.274E-02
   0.960E+02 -.633E+02 -.454E+01   -.959E+02 0.630E+02 0.461E+01   0.916E+00 -.306E+00 -.178E+01   -.857E-03 -.201E-02 0.962E-03
   0.139E+02 -.128E+03 0.659E+02   -.139E+02 0.128E+03 -.666E+02   -.179E+00 -.645E+00 0.170E+01   -.551E-02 0.314E-02 -.845E-02
   0.172E+03 -.143E+03 0.204E+03   -.172E+03 0.144E+03 -.206E+03   -.237E+00 -.130E+01 0.101E+01   0.392E-02 -.111E-02 -.386E-02
   0.201E+03 0.165E+03 0.101E+03   -.201E+03 -.166E+03 -.101E+03   0.263E+00 0.118E+01 0.865E+00   0.434E-02 0.274E-02 -.310E-02
   0.105E+03 -.769E+02 0.237E+03   -.109E+03 0.812E+02 -.250E+03   0.281E+01 -.225E+01 0.872E+01   0.603E-02 -.286E-02 -.417E-02
   -.315E+03 -.373E+02 0.178E+03   0.316E+03 0.373E+02 -.178E+03   0.393E+00 0.662E-01 -.737E-02   -.663E-03 -.352E-02 -.291E-02
   -.780E+02 0.961E+02 0.887E+02   0.782E+02 -.956E+02 -.879E+02   -.108E+00 0.272E+00 -.108E+01   -.527E-02 0.463E-02 0.803E-02
   -.234E+02 -.217E+02 0.133E+02   0.235E+02 0.214E+02 -.135E+02   -.477E-01 0.887E+00 -.129E+00   0.284E-03 -.755E-03 0.368E-02
   0.590E+02 -.273E+02 -.323E+03   -.575E+02 0.272E+02 0.325E+03   -.143E+01 -.246E+00 -.302E+01   0.315E-02 0.295E-02 -.607E-03
   0.261E+03 0.357E+03 -.159E+03   -.262E+03 -.358E+03 0.158E+03   0.682E+00 0.118E+01 0.575E+00   -.518E-02 0.492E-02 0.405E-02
   -.171E+03 -.445E+01 -.396E+02   0.172E+03 0.104E+01 0.389E+02   -.731E+00 0.348E+01 0.658E+00   -.404E-03 -.960E-02 0.319E-02
   -.841E+02 0.450E+02 -.275E+03   0.815E+02 -.431E+02 0.276E+03   0.283E+01 -.148E+01 -.121E+01   0.275E-04 -.398E-02 0.117E-02
   0.253E+03 -.323E+03 0.255E+03   -.265E+03 0.326E+03 -.259E+03   0.976E+01 -.296E+01 0.401E+01   0.672E-02 -.224E-02 0.915E-02
   -.180E+03 0.130E+03 0.550E+03   0.189E+03 -.128E+03 -.557E+03   -.740E+01 -.180E+01 0.510E+01   -.105E-02 -.826E-03 -.101E-02
   -.363E+03 0.164E+03 0.127E+03   0.364E+03 -.167E+03 -.122E+03   -.632E+00 0.184E+01 -.395E+01   0.270E-03 0.135E-01 0.291E-02
   -.311E+03 0.137E+03 0.259E+03   0.318E+03 -.151E+03 -.263E+03   -.464E+01 0.122E+02 0.354E+01   0.644E-02 -.543E-02 -.381E-02
   -.304E+03 0.141E+03 -.484E+03   0.304E+03 -.141E+03 0.484E+03   0.101E+01 0.213E+00 0.326E+00   -.115E-01 -.457E-02 0.112E-02
   0.125E+03 -.126E+03 -.237E+03   -.126E+03 0.127E+03 0.237E+03   0.627E+00 -.148E+01 -.599E+00   -.526E-02 -.725E-03 0.329E-03
   -.289E+03 -.542E+02 -.204E+03   0.289E+03 0.544E+02 0.203E+03   0.266E+00 0.980E-01 -.256E+00   -.334E-02 0.116E-01 0.637E-02
   -.165E+03 0.139E+03 0.314E+03   0.162E+03 -.139E+03 -.316E+03   0.262E+01 -.193E+00 0.171E+01   -.172E-01 -.521E-02 0.138E-01
   0.116E+03 -.339E+02 0.169E+03   -.119E+03 0.347E+02 -.171E+03   0.288E+01 -.282E+00 0.120E+01   -.669E-03 0.287E-04 0.541E-02
   0.677E+02 -.195E+03 0.755E+01   -.680E+02 0.194E+03 -.700E+01   0.182E-02 0.616E+00 -.398E-01   0.149E-02 0.239E-02 0.943E-02
   -.360E+02 -.933E+02 -.807E+02   0.357E+02 0.949E+02 0.795E+02   0.628E+00 -.863E+00 0.307E+00   -.125E-02 0.211E-02 0.108E-01
   0.147E+02 0.151E+03 -.106E+03   -.119E+02 -.156E+03 0.109E+03   -.162E+01 0.225E+01 -.310E+01   0.730E-02 0.402E-02 0.238E-02
   0.233E+03 -.147E+03 -.273E+02   -.232E+03 0.146E+03 0.269E+02   -.557E+00 -.504E+00 0.833E+00   -.142E-02 -.102E-01 0.551E-02
   0.127E+03 -.228E+02 -.164E+03   -.127E+03 0.234E+02 0.165E+03   0.195E+00 -.113E+01 0.339E+00   0.181E-02 0.157E-02 -.292E-02
   0.474E+01 -.195E+03 -.238E+03   -.906E+01 0.200E+03 0.239E+03   0.224E+01 -.376E+01 -.123E+01   -.356E-03 -.218E-02 -.462E-02
   -.125E+03 0.656E+02 -.106E+03   0.125E+03 -.653E+02 0.105E+03   0.973E+00 -.588E-01 -.136E+00   0.305E-02 0.521E-02 -.578E-02
   -.502E+02 -.118E+03 -.267E+03   0.543E+02 0.122E+03 0.269E+03   -.333E+01 -.244E+01 -.158E+01   -.191E-02 0.593E-02 -.432E-02
   0.239E+02 0.302E+03 -.257E+03   -.254E+02 -.311E+03 0.257E+03   0.574E+00 0.620E+01 -.650E+00   0.397E-02 -.642E-02 -.443E-02
   0.467E+02 -.506E+02 0.225E+03   -.459E+02 0.496E+02 -.226E+03   -.953E+00 0.189E+00 0.898E+00   0.280E-02 0.165E-02 0.499E-03
   0.283E+03 -.120E+03 0.208E+03   -.283E+03 0.119E+03 -.208E+03   0.321E+00 0.394E+00 0.116E+01   0.485E-02 0.499E-02 0.476E-02
   0.258E+03 -.112E+02 0.322E+03   -.258E+03 0.107E+02 -.321E+03   -.113E+01 -.498E+00 -.145E+01   -.908E-02 -.989E-02 -.207E-05
   -.105E+03 0.133E+03 0.394E+03   0.106E+03 -.132E+03 -.394E+03   0.260E+00 -.852E+00 -.667E+00   -.217E-02 -.103E-02 -.664E-02
   -.168E+02 -.417E+02 -.171E+03   0.162E+02 0.421E+02 0.171E+03   0.600E+00 -.465E+00 -.229E+00   -.532E-02 0.352E-02 -.180E-02
   0.904E+02 -.184E+03 -.149E+03   -.931E+02 0.185E+03 0.146E+03   0.278E+01 -.106E+01 0.225E+01   -.124E-02 0.215E-02 -.471E-02
   0.138E+03 0.161E+03 -.188E+03   -.136E+03 -.163E+03 0.187E+03   -.189E+01 0.597E+00 0.224E+01   0.160E-02 -.246E-03 0.251E-02
   -.624E+02 -.133E+03 -.241E+03   0.625E+02 0.133E+03 0.242E+03   -.213E+00 0.458E+00 -.732E-01   0.343E-02 -.500E-02 0.359E-02
   0.117E+03 0.839E+02 0.237E+03   -.116E+03 -.828E+02 -.238E+03   -.443E+00 -.138E+01 0.140E+01   0.397E-02 0.322E-02 -.342E-02
   -.217E+03 -.670E+01 0.302E+03   0.216E+03 0.567E+01 -.302E+03   0.211E+00 0.698E+00 0.683E+00   -.103E-01 0.193E-02 -.786E-02
   -.195E+02 -.328E+03 0.253E+03   0.183E+02 0.328E+03 -.253E+03   -.118E-01 0.786E+00 0.229E+00   0.448E-02 0.551E-02 -.672E-03
   0.107E+03 0.356E+02 0.470E+02   -.105E+03 -.337E+02 -.461E+02   -.458E-01 -.208E+01 -.952E+00   -.560E-02 -.191E-02 -.126E-01
   0.129E+03 -.651E+02 -.138E+03   -.128E+03 0.675E+02 0.142E+03   -.527E+00 -.759E+00 -.494E+00   0.813E-02 -.419E-03 0.421E-02
   0.308E+03 0.186E+03 0.303E+02   -.312E+03 -.192E+03 -.280E+02   0.327E+01 0.419E+01 -.193E+01   0.108E-01 -.412E-03 0.673E-02
   0.187E+03 -.239E+03 -.730E+02   -.182E+03 0.245E+03 0.917E+02   -.582E+01 -.314E+01 -.107E+02   0.782E-02 -.251E-02 -.127E-02
   -.514E+02 0.944E+02 0.747E+02   0.515E+02 -.949E+02 -.758E+02   -.159E+01 0.628E+00 0.139E+00   -.202E-02 -.260E-02 0.249E-02
   -.166E+01 -.109E+02 0.188E-01   0.689E-12 0.256E-12 0.355E-12   0.188E+01 0.111E+02 -.513E-01   -.515E-02 0.200E-02 0.238E-01

 POSITION                                       TOTAL-FORCE (eV/Angst)
      3.57265      3.44299      0.25013        -0.576210      0.544720     -0.719086
      3.27488      6.91757      9.48133        -0.564251     -0.000021     -0.596220
      6.91865      0.42597      2.85930         0.566105     -0.401876     -0.104727
      3.34222      3.84554      3.52534        -0.694487      0.733553      0.117708
      0.61491      5.88733      3.44185         0.185441      0.188945     -0.190494
     10.05856      0.62890      6.16300        -0.556037      1.396471      0.118117
      9.02620      2.16516      1.02440        -0.645373     -0.531770     -1.148655
      8.44719      5.01106      1.93888        -0.360098      0.883586     -0.340635
      6.04509      8.32407      0.96300         1.005036     -0.670981     -1.707661
      2.31968      1.27419      4.74973        -0.161219      0.161072      0.904033
      5.37056      1.88985      4.79340        -0.620241      0.322054     -0.116266
      5.91673      5.01449      4.53114         0.434976      0.373889      0.844235
      5.28011      8.10642      5.20753        -1.301534      2.026018     -4.012435
      8.51840      7.91826      5.08317         1.580527     -0.001032     -0.123938
      1.20745      2.09678      8.12688         0.134004      0.745027     -0.308738
      9.14095      4.93323      8.07721         0.008255      0.541100     -0.344797
      6.70472      1.26390      0.28178         0.055945     -0.420174     -0.885881
      0.56969      3.58682      0.81782         0.206857      0.436185     -0.078797
      7.46283      6.60554      9.36987         0.807126      0.062463     -0.044203
      7.17360      6.97532      2.95927         0.269307      0.375853      0.566343
      3.71496      0.90193      7.06456        -2.070306     -0.134394     -0.313181
      7.24187      0.57843      6.00216         2.237520     -0.067746     -1.972591
      9.71347      3.18989      5.98024         0.672046     -1.339939      0.731277
      7.33316      6.29236      6.31985         2.798402     -2.684500     -0.827119
      2.26817      5.15182      1.68534         0.305073      0.390062     -0.076792
      2.03822      7.84808      2.19716        -0.555334     -0.701728     -0.600610
      8.57226      1.91625      7.92453        -0.437660      0.307926     -0.597170
      1.77847      4.77403      8.25939         0.137365     -0.254372     -0.214263
      2.85000      8.30556      7.28483         0.179303      0.496463     -0.501508
      1.02726      8.82654      9.37285        -0.361007      0.308146      0.518507
      3.18023      0.23914      0.02550         0.284474      0.709365     -0.884888
      6.42176      3.99377      8.96235         1.226622     -2.433929      0.072304
     10.59512      6.60195      0.37694         0.614157     -1.123176      0.487959
     10.08674      0.61120      3.19166        -0.300508     -0.569008      0.503561
      4.33909      9.01229      3.07882        -2.080281      1.140735      0.305404
      0.32732      2.97181      3.32443         0.641489      0.293655     -0.674446
      6.02703      3.18560      2.16169         0.831383      0.960730      0.187918
      4.36651      6.90756      2.99562        -0.897517     -2.889655     -0.673136
      4.10245      3.40322      6.73949        -0.154724     -0.796537     -0.189895
      7.14598      3.43514      6.53662        -0.167859     -0.621235      1.006515
      0.72475      6.81361      7.08073        -1.008516     -0.981426      0.047124
      3.24324      5.88367      6.37494         1.215293      0.622187     -0.444417
      1.70621      1.39993      1.72492         0.008609     -0.041673     -0.253590
      4.48751      1.56397      2.00588         0.129124      0.816155     -0.493138
      5.45092      5.55285      1.28694        -0.148663     -0.949705      0.859924
      9.17488      8.16538      1.79059        -0.072361      0.108649      0.408123
      8.13713      2.63667      3.95326         0.135881     -0.223112      0.192196
      1.35184      4.16199      5.80991        -0.320789     -0.334713      0.354510
      9.04250      4.96752      4.85242        -1.210486      0.988419      0.235962
      2.09951      7.80815      4.83981         1.195673     -0.115717     -0.050345
      5.79072      0.87822      7.48094         0.406342      1.634654      3.707318
      5.40175      5.69186      7.90567        -0.626709     -2.121577      0.394839
      5.86391      7.56686      7.04898        -0.862778      2.706823      7.912986
      8.95456      8.61816      8.52641        -1.517387      0.135089     -0.987243
    total drift:                                0.208390      0.225757     -0.008676

  FREE ENERGIE OF THE ION-ELECTRON SYSTEM (eV)
  free  energy   TOTEN  =      -141.51936510 eV

  energy  without entropy=     -141.43232829  energy(sigma->0) =     -141.47584670