 vasp.5.4.4 18Apr17 (build Dec 13 2019 08:37:50) complex

 executed on             LinuxIFC date 2022.02.15  09:38:29

 INCAR:
 POTCAR:    PAW_PBE Hf_pv 06Sep2000
 POTCAR:    PAW_PBE Ni_pv 06Sep2000
 POTCAR:    PAW_PBE Ti_sv 26Sep2005
 POTCAR:    PAW_PBE Hf_pv 06Sep2000

 POTCAR:    PAW_PBE Ni_pv 06Sep2000

 POTCAR:    PAW_PBE Ti_sv 26Sep2005

 Optimization of the real space projectors (new method)

 maximal supplied QI-value         = 14.36
 optimisation between [QCUT,QGAM] = [ 11.35, 22.84] = [ 36.05,146.02] Ry
 Optimized for a Real-space Cutoff    1.56 Angstroem

   l    n(q)    QCUT    max X(q) W(low)/X(q) W(high)/X(q)  e(spline)
   1     10    11.346    53.935    0.90E-04    0.16E-04    0.20E-06
   1     10    11.346    55.378    0.93E-04    0.17E-04    0.21E-06
   2     10    11.346    48.043    0.36E-03    0.80E-03    0.11E-05
   2     10    11.346    39.488    0.34E-03    0.76E-03    0.10E-05
   0     11    11.346   121.653    0.34E-04    0.10E-03    0.70E-06
   0     11    11.346    66.520    0.31E-04    0.90E-04    0.64E-06
 Optimization of the real space projectors (new method)

[...]

   l    n(q)    QCUT    max X(q) W(low)/X(q) W(high)/X(q)  e(spline)
   1      9    11.338     2.836    0.21E-04    0.44E-04    0.96E-07
   1      9    11.338     4.023    0.81E-04    0.11E-03    0.22E-06
   2      8    11.338    73.368    0.36E-03    0.40E-03    0.33E-06
   2      8    11.338    69.010    0.37E-03    0.41E-03    0.34E-06
   0      9    11.338    54.797    0.66E-04    0.74E-04    0.73E-07
   0      9    11.338    24.266    0.52E-04    0.65E-04    0.65E-07
 Optimization of the real space projectors (new method)

 maximal supplied QI-value         = 16.25
 optimisation between [QCUT,QGAM] = [ 11.38, 22.75] = [ 36.24,144.96] Ry
 Optimized for a Real-space Cutoff    1.27 Angstroem

   l    n(q)    QCUT    max X(q) W(low)/X(q) W(high)/X(q)  e(spline)
   0      9    11.376    12.277    0.53E-04    0.25E-04    0.25E-07
   0      9    11.376    11.419    0.89E-04    0.67E-05    0.35E-07
   1      8    11.376     4.010    0.13E-03    0.11E-03    0.29E-07
   1      8    11.376     6.182    0.94E-04    0.19E-03    0.11E-06
   2      8    11.376    47.177    0.13E-03    0.88E-03    0.24E-06
   2      8    11.376    42.437    0.13E-03    0.86E-03    0.23E-06
  PAW_PBE Hf_pv 06Sep2000               :
  PAW_PBE Ni_pv 06Sep2000               :
  PAW_PBE Ti_sv 26Sep2005               :

 POSCAR: MLIP output to VASP
  positions in cartesian coordinates
 exchange correlation table for  LEXCH =        8
   RHO(1)=    0.500       N(1)  =     2000
   RHO(2)=  100.500       N(2)  =     4000

 ion  position               nearest neighbor table
   1  0.330  0.350  0.019-  28 2.57  25 2.58  44 2.73  32 2.94  39 2.95  45 3.01  18 3.06  37 3.12
                            43 3.14  15 3.18  31 3.24  52 3.28   4 3.31   2 3.36
   2  0.282  0.712  0.993-  25 2.49  29 2.63  26 2.66  45 2.78  31 2.82  28 2.89  52 2.92  30 2.95
                            33 3.06  38 3.11  42 3.27   9 3.30   1 3.36
   3  0.671  0.003  0.307-  46 2.70  17 2.72  47 2.75  20 2.79  44 2.82  11 2.88   9 2.91  14 2.92
                            37 2.98  22 3.16  35 3.17  34 3.19   7 3.29  13 3.43
   4  0.305  0.390  0.367-  25 2.50  44 2.97  12 3.00  10 3.03  48 3.05  37 3.08  11 3.09  36 3.15
                            38 3.27   1 3.31  39 3.33   5 3.41
   5  0.029  0.625  0.351-  25 2.52  26 2.72  49 2.77  50 2.80  36 2.93  46 2.94  48 3.02  33 3.06
                             8 3.20  14 3.28   4 3.41
   6  0.976  0.002  0.660-  23 2.59  27 2.64  41 2.72  22 2.82  50 2.91  29 2.94  34 2.97  54 2.98
                            30 3.10  15 3.14  10 3.16  14 3.17
   7  0.868  0.181  0.107-  27 2.56  17 2.60  18 2.70  34 2.87   8 3.04  43 3.06  36 3.08  47 3.10
                            30 3.16   3 3.29  37 3.37  46 3.39  15 3.40  16 3.53
   8  0.796  0.489  0.197-  20 2.55  19 2.64  18 2.82  36 2.97  49 2.97  37 3.04   7 3.04  33 3.10
                            45 3.11  47 3.13   5 3.20  46 3.24  16 3.33  32 3.33  12 3.62
   9  0.545  0.860  0.083-  19 2.52  17 2.59  20 2.66  31 2.76  35 2.80  45 2.85   3 2.91  38 2.99
                            44 3.06  51 3.17  46 3.24   2 3.30
  10  0.219  0.117  0.504-  21 2.73  50 2.89  35 2.91  36 2.98   4 3.03  43 3.09  11 3.11   6 3.16
                            34 3.19  48 3.22  13 3.51  15 3.65
  11  0.513  0.166  0.508-  22 2.59  39 2.77   3 2.88  51 2.90  40 2.93  44 2.94  21 2.98  47 2.99
                            37 3.01   4 3.09  10 3.11  13 3.17  12 3.18  35 3.32
  12  0.550  0.499  0.472-  24 2.62  20 2.81  40 2.83  38 2.89  37 3.00   4 3.00  49 3.14  11 3.18
                            13 3.23  39 3.28  47 3.30  45 3.32  42 3.36   8 3.62
  13  0.471  0.835  0.535-  53 2.01  35 2.50  38 2.68  24 2.96  20 3.15  21 3.16  11 3.17  29 3.20
                            50 3.22  12 3.23  42 3.23  14 3.25   3 3.43  10 3.51
  14  0.788  0.796  0.524-  24 2.36  22 2.43  20 2.68   3 2.92  49 3.01   6 3.17  41 3.23  13 3.25
                             5 3.28  53 3.32  34 3.33  46 3.37
  15  0.106  0.207  0.861-  18 2.71  28 2.74  23 2.83  30 2.87  31 2.93  21 2.97  27 3.02  43 3.08
                            48 3.11   6 3.14   1 3.18  16 3.30   7 3.40  10 3.65
  16  0.864  0.467  0.851-  19 2.70  23 2.79  18 2.81  24 2.86  33 2.87  40 2.93  28 2.96  32 3.01
                            27 3.07  49 3.23  41 3.23  15 3.30   8 3.33   7 3.53
  17  0.646  0.098  0.030-  51 2.43   9 2.59   7 2.60  32 2.71   3 2.72
  18  0.037  0.381  0.078-  25 2.47  28 2.52  33 2.53  36 2.59  43 2.63   7 2.70  15 2.71  16 2.81
                             8 2.82   1 3.06
  19  0.692  0.655  0.984-   9 2.52  45 2.56   8 2.64  54 2.64  52 2.69  16 2.70
  20  0.662  0.706  0.300-   8 2.55  46 2.61   9 2.66  14 2.68   3 2.79  12 2.81  13 3.15
  21  0.357  0.066  0.752-  51 2.12  29 2.36  31 2.47  39 2.55  10 2.73  15 2.97  11 2.98  13 3.16

  22  0.702  0.013  0.641-  51 2.09  14 2.43  11 2.59   6 2.82   3 3.16
  23  0.929  0.280  0.633-  49 2.21  48 2.46   6 2.59  47 2.63  40 2.64  16 2.79  15 2.83
  24  0.681  0.626  0.660-  53 2.08  14 2.36  52 2.57  49 2.61  12 2.62  16 2.86  13 2.96
  25  0.194  0.539  0.167-  18 2.47   2 2.49   4 2.50  33 2.52   5 2.52   1 2.58
  26  0.157  0.829  0.214-  30 2.58  38 2.63  50 2.64  34 2.65   2 2.66   5 2.72  35 2.73
  27  0.824  0.146  0.843-  40 2.50   7 2.56   6 2.64  54 2.65  15 3.02  16 3.07
  28  0.148  0.491  0.868-  18 2.52  33 2.56  48 2.56   1 2.57  41 2.58  42 2.63  15 2.74   2 2.89
                            16 2.96
  29  0.233  0.867  0.755-  21 2.36  41 2.60  50 2.61  42 2.62   2 2.63   6 2.94  13 3.20
  30  0.053  0.930  0.975-  26 2.58  54 2.61  33 2.76  31 2.82  15 2.87   2 2.95   6 3.10   7 3.16

  31  0.309  0.008  0.004-  21 2.47  43 2.53  44 2.72   9 2.76   2 2.82  30 2.82  15 2.93   1 3.24

  32  0.604  0.380  0.947-  52 2.25  45 2.59  40 2.59  37 2.70  17 2.71   1 2.94  16 3.01   8 3.33

  33  0.997  0.650  0.027-  25 2.52  18 2.53  46 2.54  28 2.56  30 2.76  54 2.80  41 2.82  16 2.87
                             5 3.06   2 3.06   8 3.10
  34  0.979  0.004  0.343-  26 2.65  43 2.77  50 2.78  46 2.80   7 2.87  47 2.91   6 2.97  10 3.19
                             3 3.19  14 3.33
  35  0.375  0.940  0.305-  38 2.11  44 2.16  13 2.50  26 2.73   9 2.80  10 2.91   3 3.17  11 3.32

  36  0.016  0.313  0.346-  18 2.59  43 2.63  49 2.66  47 2.71   5 2.93   8 2.97  10 2.98   7 3.08
                             4 3.15
  37  0.570  0.306  0.224-  44 2.24  45 2.59  32 2.70  47 2.82   3 2.98  12 3.00  11 3.01   8 3.04
                             4 3.08   1 3.12   7 3.37
  38  0.389  0.714  0.302-  35 2.11  45 2.44  26 2.63  13 2.68  12 2.89   9 2.99   2 3.11   4 3.27

  39  0.381  0.333  0.711-  21 2.55  42 2.65  11 2.77  52 2.88   1 2.95  12 3.28   4 3.33
  40  0.678  0.320  0.690-  27 2.50  32 2.59  23 2.64  12 2.83  47 2.88  11 2.93  16 2.93
  41  0.034  0.718  0.736-  28 2.58  29 2.60   6 2.72  42 2.78  50 2.81  33 2.82  54 2.84  16 3.23
                            14 3.23
  42  0.285  0.605  0.665-  29 2.62  48 2.62  28 2.63  39 2.65  52 2.65  50 2.71  41 2.78  13 3.23
                             2 3.27  12 3.36
  43  0.159  0.138  0.181-  31 2.53  18 2.63  36 2.63  34 2.77  44 2.80   7 3.06  15 3.08  10 3.09
                             1 3.14
  44  0.429  0.140  0.212-  35 2.16  37 2.24  31 2.72   1 2.73  43 2.80   3 2.82  11 2.94   4 2.97
                             9 3.06
  45  0.502  0.565  0.124-  38 2.44  19 2.56  37 2.59  32 2.59  52 2.77   2 2.78   9 2.85   1 3.01
                             8 3.11  12 3.32
  46  0.851  0.824  0.173-  33 2.54  20 2.61  54 2.68   3 2.70  34 2.80   5 2.94   8 3.24   9 3.24
                            14 3.37   7 3.39
  47  0.778  0.232  0.418-  23 2.63  49 2.66  36 2.71   3 2.75  37 2.82  40 2.88  34 2.91  11 2.99
                             7 3.10   8 3.13  12 3.30
  48  0.109  0.431  0.608-  23 2.46  28 2.56  42 2.62  49 2.78   5 3.02   4 3.05  15 3.11  10 3.22

  49  0.854  0.476  0.508-  23 2.21  24 2.61  36 2.66  47 2.66   5 2.77  48 2.78   8 2.97  14 3.01
                            12 3.14  16 3.23
  50  0.163  0.821  0.495-  29 2.61  26 2.64  42 2.71  34 2.78   5 2.80  41 2.81  10 2.89   6 2.91
                            13 3.22
  51  0.559  0.051  0.797-  22 2.09  21 2.12  17 2.43  53 2.76  11 2.90   9 3.17
  52  0.496  0.570  0.829-  53 2.11  32 2.25  24 2.57  42 2.65  19 2.69  45 2.77  39 2.88   2 2.92
                             1 3.28
  53  0.531  0.771  0.733-  13 2.01  24 2.08  52 2.11  51 2.76  14 3.32
  54  0.826  0.864  0.889-  30 2.61  19 2.64  27 2.65  46 2.68  33 2.80  41 2.84   6 2.98

  LATTYP: Found a triclinic cell.
 ALAT       =    29.8773866884
 B/A-ratio  =     0.3450371813
 C/A-ratio  =     0.3143215162
 COS(alpha) =     0.0007309725
 COS(beta)  =     0.6168880492
 COS(gamma) =     0.7235602306

  Lattice vectors:

 A1 = (  21.0630120000,  10.1400410000, -18.6061100000)
 A2 = (  10.2948030000,   0.5362940000,  -0.0311270000)
 A3 = (  -0.0147530000,  -0.1298600000,  -9.3901960000)

Analysis of symmetry for initial positions (statically):
 Subroutine PRICEL returns:
 Original cell was already a primitive cell.

 Routine SETGRP: Setting up the symmetry group for a
 triclinic supercell.

 Subroutine GETGRP returns: Found  1 space group operations
 (whereof  1 operations were pure point group operations)
 out of a pool of  2 trial point group operations.

The static configuration has the point symmetry C_1 .

Analysis of symmetry for dynamics (positions and initial velocities):
 Subroutine PRICEL returns:
 Original cell was already a primitive cell.

 Routine SETGRP: Setting up the symmetry group for a
 triclinic supercell.

 Subroutine GETGRP returns: Found  1 space group operations
 (whereof  1 operations were pure point group operations)
 out of a pool of  2 trial point group operations.

The dynamic configuration has the point symmetry C_1 .

 Subroutine INISYM returns: Found  1 space group operations
 (whereof  1 operations are pure point group operations),
 and found     1 'primitive' translations

Automatic generation of k-mesh.
 generate k-points for:    2    2    2
[...]
    399       9.2961      0.00000
    400       9.3370      0.00000
    401       9.3570      0.00000
    402       9.4050      0.00000

[...]

 k-point     8 :       0.5000    0.5000    0.5000
  band No.  band energies     occupation
      1     -57.2408      2.00000
      2     -57.2403      2.00000
      3     -57.1684      2.00000
      4     -57.0954      2.00000
      5     -57.0153      2.00000
      6     -56.9427      2.00000
      7     -56.9355      2.00000
      8     -56.9191      2.00000
      9     -56.8557      2.00000
     10     -56.8518      2.00000
     11     -56.8421      2.00000
     12     -56.8347      2.00000
     13     -56.7815      2.00000
     14     -56.7785      2.00000
     15     -56.7697      2.00000
     16     -56.7664      2.00000
     17     -56.7535      2.00000
     18     -56.7514      2.00000
     19     -56.7352      2.00000
     20     -56.7325      2.00000
     21     -56.7177      2.00000
     22     -56.7115      2.00000
     23     -56.6854      2.00000
     24     -56.6736      2.00000
     25     -56.6650      2.00000
     26     -56.6545      2.00000
     27     -56.6332      2.00000
     28     -56.6278      2.00000
     29     -56.6261      2.00000
     30     -56.6118      2.00000
     31     -56.6084      2.00000
     32     -56.6001      2.00000
     33     -56.5712      2.00000
     34     -56.5571      2.00000
     35     -56.5570      2.00000
     36     -56.5337      2.00000
     37     -56.5049      2.00000
     38     -56.4882      2.00000
     39     -56.4484      2.00000
     40     -49.6749      2.00000
     41     -49.6045      2.00000
     42     -49.5758      2.00000
     43     -49.5566      2.00000
     44     -49.5365      2.00000
     45     -49.5196      2.00000
     46     -49.4945      2.00000
     47     -49.4696      2.00000
     48     -49.4649      2.00000
     49     -49.4492      2.00000
     50     -49.4252      2.00000
     51     -49.4046      2.00000
     52     -49.3929      2.00000
     53     -49.3301      2.00000
     54     -49.3179      2.00000
     55     -49.3173      2.00000
     56     -49.2920      2.00000
     57     -49.2895      2.00000
     58     -49.2569      2.00000
     59     -49.1690      2.00000
     60     -49.0760      2.00000
[...]
    388       8.9185      0.00000
    389       8.9653      0.00000
    390       9.0214      0.00000
    391       9.0366      0.00000
    392       9.0646      0.00000
    393       9.0856      0.00000
    394       9.1137      0.00000
    395       9.1174      0.00000
    396       9.2016      0.00000
    397       9.2436      0.00000
    398       9.2548      0.00000
    399       9.2734      0.00000
    400       9.3312      0.00000
    401       9.3419      0.00000
    402       9.3949      0.00000

 soft charge-density along one line, spin component           1
         0         1         2         3         4         5         6         7         8         9
 total charge-density along one line

------------------------ aborting loop because EDIFF is reached ----------------------------------------

  FORCE on cell =-STRESS in cart. coord.  units (eV):
  Direction    XX          YY          ZZ          XY          YZ          ZX
  Alpha Z  4808.69657  4808.69657  4808.69657
  Ewald  -22175.04709-20912.10602-22365.54180   404.92985  -477.42970  -626.45935
  Hartree  9671.53712 10417.21006  9198.48306   560.59751  -229.29363  -548.49960
  E(xc)   -3775.87093 -3774.75327 -3775.87294    -0.45963    -0.23793    -0.42774
  Local     905.34381 -1072.21692  1587.83372  -970.71677   690.71320  1181.52654
  n-local -2917.57203 -2949.69284 -2926.54337    21.97447     6.87591    -1.11853
  augment  4048.02860  4053.14239  4048.75224    -4.00785     1.44848     0.53414
  Kinetic  9458.38122  9479.85459  9462.36196   -20.17714    -0.83927    -0.62601
  Fock        0.00000     0.00000     0.00000     0.00000     0.00000     0.00000
  Total      23.49727    50.13457    38.16944    -7.85956    -8.76293     4.92947
  in kB      41.88492    89.36706    68.03871   -14.01000   -15.62031     8.78699

 VOLUME and BASIS-vectors are now :
  energy-cutoff  :      500.00
  volume of cell :      898.82
      direct lattice vectors                 reciprocal lattice vectors
    10.294803000  0.536294000 -0.031127000     0.097409649 -0.005250193 -0.000080434
     0.502912000  9.327173000  0.236536000    -0.005607324  0.107553460 -0.001478581
     0.014753000  0.129860000  9.390196000     0.000464144 -0.002726640  0.106531028

  length of vectors
    10.308809289  9.343715852  9.391105483     0.097551067  0.107709679  0.106566927

 FORCES acting on ions
    electron-ion (+dipol)            ewald-force                    non-local-force                 convergence-correction
   -.157E+03 0.169E+03 -.930E+01   0.157E+03 -.167E+03 0.994E+01   0.112E+00 -.134E+01 -.133E+01   -.236E-02 0.832E-02 -.135E-04
   -.174E+03 -.316E+02 0.581E+02   0.173E+03 0.312E+02 -.585E+02   0.146E+00 0.548E+00 -.628E+00   -.167E-02 -.111E-01 0.353E-02
   -.744E+02 -.533E+02 -.144E+03   0.741E+02 0.543E+02 0.143E+03   0.873E+00 -.132E+01 0.812E+00   -.752E-02 -.415E-02 0.176E-02
   -.777E+02 0.677E+02 -.231E+03   0.782E+02 -.686E+02 0.232E+03   -.872E+00 0.133E+01 -.295E+00   0.106E-02 0.168E-02 -.311E-02
   0.101E+03 -.211E+02 -.284E+03   -.101E+03 0.201E+02 0.283E+03   0.684E-02 0.133E+01 0.108E+01   0.112E-02 0.335E-02 -.974E-03
   -.146E+03 0.977E+02 0.232E+03   0.146E+03 -.983E+02 -.232E+03   0.548E+00 0.138E+01 -.686E+00   -.512E-04 0.688E-02 -.619E-02
   -.306E+02 -.333E+00 -.214E+03   0.311E+02 0.138E+00 0.214E+03   -.567E+00 -.178E+00 -.129E+01   -.483E-02 0.387E-02 -.348E-02
   -.131E+02 0.165E+03 -.140E+03   0.132E+02 -.165E+03 0.140E+03   -.225E+00 0.699E+00 -.760E+00   -.594E-03 0.645E-02 0.466E-02
   0.962E+02 -.632E+02 -.423E+01   -.959E+02 0.630E+02 0.461E+01   0.325E+00 -.328E+00 -.182E+01   -.151E-02 -.761E-03 0.766E-02
   0.140E+02 -.128E+03 0.660E+02   -.139E+02 0.128E+03 -.666E+02   -.365E+00 -.588E+00 0.135E+01   -.821E-03 -.344E-02 0.115E-02
   0.172E+03 -.143E+03 0.205E+03   -.172E+03 0.144E+03 -.206E+03   -.567E+00 -.106E+01 0.780E+00   -.100E-02 -.259E-02 -.532E-02
   0.201E+03 0.165E+03 0.101E+03   -.201E+03 -.166E+03 -.101E+03   0.101E+00 0.919E+00 0.738E+00   0.680E-02 0.671E-02 0.240E-02
   0.104E+03 -.770E+02 0.237E+03   -.109E+03 0.812E+02 -.250E+03   0.296E+01 -.214E+01 0.883E+01   0.339E-02 -.243E-02 -.198E-02
   -.315E+03 -.373E+02 0.178E+03   0.316E+03 0.373E+02 -.178E+03   0.896E+00 -.133E+00 -.222E+00   -.442E-02 -.786E-02 -.405E-04
   -.783E+02 0.966E+02 0.888E+02   0.782E+02 -.956E+02 -.879E+02   0.134E+00 -.461E+00 -.126E+01   -.296E-02 0.121E-01 -.800E-02
   -.232E+02 -.218E+02 0.133E+02   0.235E+02 0.214E+02 -.135E+02   -.724E-01 0.782E+00 -.272E+00   0.510E-02 -.136E-02 -.813E-02
   0.584E+02 -.265E+02 -.322E+03   -.575E+02 0.272E+02 0.325E+03   -.115E+01 -.446E+00 -.284E+01   -.675E-02 0.549E-02 0.804E-02
   0.260E+03 0.355E+03 -.159E+03   -.262E+03 -.358E+03 0.158E+03   0.226E+01 0.274E+01 0.582E+00   0.632E-02 0.190E-01 -.178E-01
   -.171E+03 -.456E+01 -.396E+02   0.172E+03 0.104E+01 0.389E+02   -.850E+00 0.344E+01 0.279E+00   -.749E-02 -.101E-01 -.193E-02
   -.840E+02 0.448E+02 -.276E+03   0.815E+02 -.431E+02 0.276E+03   0.194E+01 -.143E+01 -.656E+00   -.310E-02 -.661E-02 0.146E-01
   0.255E+03 -.323E+03 0.255E+03   -.265E+03 0.326E+03 -.259E+03   0.854E+01 -.297E+01 0.335E+01   -.113E-01 -.207E-02 -.105E-01
   -.181E+03 0.130E+03 0.551E+03   0.189E+03 -.128E+03 -.557E+03   -.632E+01 -.154E+01 0.452E+01   0.101E-01 -.726E-02 -.114E-01
   -.363E+03 0.165E+03 0.126E+03   0.364E+03 -.167E+03 -.122E+03   -.594E+00 0.809E+00 -.295E+01   0.118E-02 0.793E-02 0.660E-02
   -.312E+03 0.138E+03 0.260E+03   0.318E+03 -.151E+03 -.263E+03   -.383E+01 0.105E+02 0.349E+01   0.389E-02 -.482E-02 -.101E-01
   -.304E+03 0.141E+03 -.484E+03   0.304E+03 -.141E+03 0.484E+03   0.339E+00 0.130E+00 -.182E+00   -.199E-02 0.103E-01 -.893E-02
   0.125E+03 -.126E+03 -.236E+03   -.126E+03 0.127E+03 0.237E+03   0.292E+00 -.153E+01 -.911E+00   0.359E-02 -.136E-01 0.120E-01
   -.289E+03 -.546E+02 -.203E+03   0.289E+03 0.544E+02 0.203E+03   -.808E-01 0.205E+00 -.638E+00   0.277E-02 0.135E-01 -.114E-01
   -.164E+03 0.139E+03 0.313E+03   0.162E+03 -.139E+03 -.316E+03   0.208E+01 0.117E+00 0.237E+01   -.407E-03 -.148E-02 0.584E-02
   0.115E+03 -.345E+02 0.170E+03   -.119E+03 0.347E+02 -.171E+03   0.318E+01 0.336E+00 0.732E+00   0.366E-02 -.531E-02 -.114E-01
   0.682E+02 -.195E+03 0.746E+01   -.680E+02 0.194E+03 -.700E+01   -.144E+00 0.358E+00 0.368E-02   0.495E-02 -.726E-02 0.291E-02
   -.366E+02 -.938E+02 -.805E+02   0.357E+02 0.949E+02 0.795E+02   0.887E+00 -.873E+00 0.548E+00   0.483E-02 -.111E-02 0.426E-02
   0.148E+02 0.151E+03 -.105E+03   -.119E+02 -.156E+03 0.109E+03   -.142E+01 0.239E+01 -.296E+01   -.414E-02 0.344E-02 -.120E-02
   0.233E+03 -.146E+03 -.275E+02   -.232E+03 0.146E+03 0.269E+02   -.524E+00 -.138E+00 0.697E+00   0.120E-01 -.127E-01 0.932E-03
   0.127E+03 -.230E+02 -.165E+03   -.127E+03 0.234E+02 0.165E+03   0.118E+00 -.841E+00 0.455E+00   0.688E-02 -.931E-02 0.859E-02
   0.450E+01 -.195E+03 -.238E+03   -.906E+01 0.200E+03 0.239E+03   0.240E+01 -.350E+01 -.146E+01   -.138E-02 0.394E-02 0.252E-02
   -.125E+03 0.657E+02 -.106E+03   0.125E+03 -.653E+02 0.105E+03   0.909E+00 -.168E+00 0.441E-02   -.505E-03 0.779E-02 0.975E-02
   -.500E+02 -.119E+03 -.268E+03   0.543E+02 0.122E+03 0.269E+03   -.305E+01 -.235E+01 -.145E+01   -.806E-02 0.112E-03 -.390E-02
   0.240E+02 0.302E+03 -.257E+03   -.254E+02 -.311E+03 0.257E+03   0.564E+00 0.600E+01 -.732E+00   -.204E-02 0.223E-02 -.350E-02
   0.466E+02 -.504E+02 0.225E+03   -.459E+02 0.496E+02 -.226E+03   -.917E+00 0.293E+00 0.939E+00   -.446E-02 0.794E-02 0.336E-02
   0.283E+03 -.119E+03 0.208E+03   -.283E+03 0.119E+03 -.208E+03   0.305E+00 0.354E+00 0.887E+00   0.103E-01 0.104E-01 -.279E-02
   0.259E+03 -.113E+02 0.322E+03   -.258E+03 0.107E+02 -.321E+03   -.119E+01 -.272E+00 -.149E+01   0.152E-02 -.103E-01 -.128E-02
   -.105E+03 0.133E+03 0.394E+03   0.106E+03 -.132E+03 -.394E+03   0.368E+00 -.717E+00 -.736E+00   0.272E-03 0.782E-03 0.494E-02
   -.169E+02 -.420E+02 -.171E+03   0.162E+02 0.421E+02 0.171E+03   0.566E+00 -.521E+00 -.454E-01   0.702E-02 -.116E-02 0.483E-02
   0.905E+02 -.184E+03 -.149E+03   -.931E+02 0.185E+03 0.146E+03   0.244E+01 -.133E+01 0.212E+01   0.264E-02 -.913E-03 0.229E-02
   0.138E+03 0.161E+03 -.188E+03   -.136E+03 -.163E+03 0.187E+03   -.184E+01 0.511E+00 0.211E+01   -.358E-02 -.837E-03 -.155E-02
   -.625E+02 -.133E+03 -.241E+03   0.625E+02 0.133E+03 0.242E+03   -.327E+00 0.629E+00 -.149E+00   0.163E-02 -.106E-01 0.978E-02
   0.117E+03 0.838E+02 0.237E+03   -.116E+03 -.828E+02 -.238E+03   -.485E+00 -.131E+01 0.126E+01   0.170E-02 0.444E-02 0.109E-01
   -.217E+03 -.659E+01 0.301E+03   0.216E+03 0.567E+01 -.302E+03   0.221E+00 0.768E+00 0.576E+00   -.904E-02 -.177E-02 0.745E-02
   -.195E+02 -.328E+03 0.253E+03   0.183E+02 0.328E+03 -.253E+03   -.182E+00 0.928E+00 -.766E-01   -.301E-02 0.457E-02 0.101E-01
   0.107E+03 0.355E+02 0.468E+02   -.105E+03 -.337E+02 -.461E+02   -.195E+00 -.189E+01 -.747E+00   0.106E-03 0.107E-02 -.779E-02
   0.129E+03 -.652E+02 -.139E+03   -.128E+03 0.675E+02 0.142E+03   -.446E+00 -.907E+00 -.103E+01   0.430E-02 -.617E-04 -.182E-03
   0.308E+03 0.187E+03 0.302E+02   -.312E+03 -.192E+03 -.280E+02   0.308E+01 0.395E+01 -.175E+01   -.180E-02 0.610E-03 -.200E-02
   0.188E+03 -.239E+03 -.729E+02   -.182E+03 0.245E+03 0.917E+02   -.533E+01 -.317E+01 -.108E+02   0.445E-02 -.135E-01 -.826E-02
   -.515E+02 0.944E+02 0.747E+02   0.515E+02 -.949E+02 -.758E+02   -.155E+01 0.428E+00 0.131E-01   -.303E-02 -.363E-02 -.881E-02
   -.346E+01 -.839E+01 0.180E+01   0.689E-12 0.256E-12 0.355E-12   0.349E+01 0.840E+01 -.170E+01   0.117E-01 -.519E-02 -.110E-01

 POSITION                                       TOTAL-FORCE (eV/Angst)
      3.57265      3.44299      0.25013        -0.180886      0.132892     -0.696445
      3.27488      6.91757      9.48133        -0.371734      0.155897     -0.984272
      6.91865      0.42597      2.85930         0.569126     -0.344358      0.041163
      3.34222      3.84554      3.52534        -0.465812      0.465395      0.337913
      0.61491      5.88733      3.44185        -0.032202      0.332774      0.140072
     10.05856      0.62890      6.16300        -0.247272      0.764957      0.016671
      9.02620      2.16516      1.02440        -0.067155     -0.369747     -0.553539
      8.44719      5.01106      1.93888        -0.072320      0.441543     -0.292383
      6.04509      8.32407      0.96300         0.600771     -0.597224     -1.425300
      2.31968      1.27419      4.74973        -0.191388      0.086645      0.715947
      5.37056      1.88985      4.79340        -0.802943      0.447351     -0.230205
      5.91673      5.01449      4.53114         0.379020      0.270093      0.629293
      5.28011      8.10642      5.20753        -1.252393      2.057819     -3.906376
      8.51840      7.91826      5.08317         1.953536     -0.115447     -0.392081
      1.20745      2.09678      8.12688         0.077645      0.487085     -0.383003
      9.14095      4.93323      8.07721         0.147007      0.330704     -0.412559
      6.70472      1.26390      0.28178        -0.253571      0.255123      0.218543
      0.56969      3.58682      0.81782         0.031904      0.078461      0.152230
      7.46283      6.60554      9.36987         0.756600     -0.095733     -0.475856
      7.17360      6.97532      2.95927        -0.543770      0.255229      0.150421
      3.71496      0.90193      7.06456        -1.486889      0.174041     -0.810306
      7.24187      0.57843      6.00216         1.660322      0.262093     -1.440812
      9.71347      3.18989      5.98024         0.776264     -1.476672      0.555896
      7.33316      6.29236      6.31985         2.487839     -3.046870      0.095212
      2.26817      5.15182      1.68534         0.486056      0.192447     -0.228771
      2.03822      7.84808      2.19716        -0.485076      0.022751     -0.337612
      8.57226      1.91625      7.92453        -0.018509      0.086899     -0.195349
      1.77847      4.77403      8.25939         0.218801      0.067096     -0.342376
      2.85000      8.30556      7.28483        -0.426819      0.570461     -0.353710
      1.02726      8.82654      9.37285         0.067828     -0.097071      0.458910
      3.18023      0.23914      0.02550        -0.010391      0.223840     -0.394567
      6.42176      3.99377      8.96235         1.450391     -2.518326      0.620046
     10.59512      6.60195      0.37694         0.330313     -0.144179      0.094721
     10.08674      0.61120      3.19166        -0.085695     -0.465133      0.436376
      4.33909      9.01229      3.07882        -2.161168      1.289906     -0.150815
      0.32732      2.97181      3.32443         0.498383      0.249846     -0.307931
      6.02703      3.18560      2.16169         1.274286      0.782578      0.189153
      4.36651      6.90756      2.99562        -0.890522     -2.804945     -0.491190
      4.10245      3.40322      6.73949        -0.277849     -0.420263     -0.221557
      7.14598      3.43514      6.53662        -0.230276     -0.267698      0.158438
      0.72475      6.81361      7.08073        -0.784527     -0.859903      0.042631
      3.24324      5.88367      6.37494         0.924163      0.779791     -0.341498
      1.70621      1.39993      1.72492        -0.156112     -0.421177     -0.006316
      4.48751      1.56397      2.00588        -0.150627      0.483958     -0.632185
      5.45092      5.55285      1.28694         0.011765     -0.885303      0.775373
      9.17488      8.16538      1.79059        -0.288711      0.381330      0.428257
      8.13713      2.63667      3.95326        -0.045893     -0.238066      0.306185
      1.35184      4.16199      5.80991        -0.201027     -0.160778      0.000525
      9.04250      4.96752      4.85242        -1.402120      1.424309      0.027630
      2.09951      7.80815      4.83981         0.960222     -0.083967     -0.055687
      5.79072      0.87822      7.48094         0.513791      1.383475      2.301766
      5.40175      5.69186      7.90567        -0.781686     -1.918484      0.455482
      5.86391      7.56686      7.04898        -0.213777      2.439511      7.905863
      8.95456      8.61816      8.52641        -1.596914     -0.044958     -1.192016
    total drift:                                0.044973      0.006891      0.089742

  FREE ENERGIE OF THE ION-ELECTRON SYSTEM (eV)
  free  energy   TOTEN  =      -420.39380759 eV

  energy  without entropy=     -420.30268148  energy(sigma->0) =     -420.34824453